minizinc/sudoku_problems2/sudoku_p62.dzn
%
% sudoku_p62.dzn
% See http://www.hakank.org/minizinc/sudoku_gcc.mzn
% 
% This problem is problem 62 from
% Gecode's sudoku.cpp
% http://www.gecode.org/gecode-doc-latest/sudoku_8cpp-source.html
% 
x = array2d(1..n, 1..n, [   
% http://janko.at/Raetsel/Sudoku/509.a.htm
% 62 // problems
  _,  _, 14, 15,  9,  6,  _,  _,  _,  8,  _,  5, 11,  _, 12,  _,
 13,  _,  _,  _, 15, 14,  _,  _,  _,  _,  1,  _,  2, 10,  _,  _,
  _,  8,  6,  _,  _,  2,  _,  _, 12,  _,  _,  _,  5,  7,  _,  1,
 12,  2,  1,  _,  _,  _, 11, 13,  9,  _,  _, 14,  _,  _,  _,  3,
  5,  _,  _,  1,  _, 12,  _,  _,  _,  6,  _,  _,  _,  _, 13, 10,
  _, 16,  _,  _,  _,  _,  _,  7,  _, 14,  _,  1,  _,  5, 11, 12,
 11,  _,  _,  _, 13,  1,  _,  _,  8,  _,  _,  _,  7,  _,  _,  _,
  _,  _,  9, 13,  _,  _, 10,  2,  7,  _,  3,  _, 14,  _,  _,  _,
  _,  _,  _,  3,  _, 10,  _, 14,  5, 11,  _,  _,  6, 15,  _,  _,
  _,  _,  _,  5,  _,  _,  _, 12,  _,  _,  8,  3,  _,  _,  _, 11,
 15, 13, 11,  _,  2,  _,  9,  _,  6,  _,  _,  _,  _,  _,  5,  _,
  6,  1,  _,  _,  _,  _,  5,  _,  _,  _, 14,  _, 16,  _,  _,  9,
  4,  _,  _,  _,  8,  _,  _,  3, 11,  7,  _,  _,  _, 14, 10,  2,
 14,  _,  2,  6,  _,  _,  _, 10,  _,  _, 16,  _,  _, 12, 15,  _,
  _,  _,  5,  8,  _, 13,  _,  _,  _,  _,  4, 15,  _,  _,  _, 16,
  _, 11,  _,  7, 12,  _,  2,  _,  _,  _,  5, 10, 13,  9,  _,  _
]);

n = 16;


